; Options: -in -smt2
(set-option :produce-unsat-assumptions true)

(declare-fun start!1751 () Bool)

(assert start!1751)

(declare-fun i!179 () (_ BitVec 32))

(declare-fun lt!4591 () (_ BitVec 32))

(declare-fun lt!4592 () (_ BitVec 32))

(declare-fun b!9352 () Bool)

(declare-fun jz!32 () (_ BitVec 32))

(declare-fun e!5133 () Bool)

(assert (=> b!9352 (= e!5133 (and (bvsle i!179 (bvadd lt!4592 jz!32)) (bvsge (bvadd (bvsub lt!4591 lt!4592) i!179) #b00000000000000000000000000000000) (let ((lhs!52 (bvsub lt!4591 lt!4592))) (and (= (bvand lhs!52 #b10000000000000000000000000000000) (bvand i!179 #b10000000000000000000000000000000)) (not (= (bvand lhs!52 #b10000000000000000000000000000000) (bvand (bvadd lhs!52 i!179) #b10000000000000000000000000000000)))))))))

(declare-fun b!9351 () Bool)

(declare-fun res!7713 () Bool)

(assert (=> b!9351 (=> (not res!7713) (not e!5133))))

(declare-datatypes ((array!706 0))(
  ( (array!707 (arr!310 (Array (_ BitVec 32) (_ FloatingPoint 11 53))) (size!310 (_ BitVec 32))) )
))
(declare-fun f!58 () array!706)

(declare-fun fInv!0 (array!706) Bool)

(assert (=> b!9351 (= res!7713 (fInv!0 f!58))))

(declare-fun b!9350 () Bool)

(declare-fun e!5132 () Bool)

(assert (=> b!9350 (= e!5132 e!5133)))

(declare-fun res!7711 () Bool)

(assert (=> b!9350 (=> (not res!7711) (not e!5133))))

(declare-fun e!15 () (_ BitVec 32))

(assert (=> b!9350 (= res!7711 (and (= (bvsub e!15 (bvmul #b00000000000000000000000000011000 (bvadd lt!4591 #b00000000000000000000000000000001))) #b00000000000000000000000000000000) (bvsle #b00000000000000000000000000000000 i!179) (bvsle i!179 (bvadd lt!4592 jz!32 #b00000000000000000000000000000001))))))

(declare-fun lt!4593 () (_ BitVec 32))

(assert (=> b!9350 (= lt!4591 (ite (bvslt lt!4593 #b00000000000000000000000000000000) #b00000000000000000000000000000000 lt!4593))))

(assert (=> b!9350 (= lt!4593 (bvsdiv (bvsub e!15 #b00000000000000000000000000000011) #b00000000000000000000000000011000))))

(declare-fun xx!44 () array!706)

(assert (=> b!9350 (= lt!4592 (bvsub (size!310 xx!44) #b00000000000000000000000000000001))))

(declare-fun b!9349 () Bool)

(declare-fun res!7712 () Bool)

(assert (=> b!9349 (=> (not res!7712) (not e!5132))))

(declare-fun xxInv!0 (array!706) Bool)

(assert (=> b!9349 (= res!7712 (xxInv!0 xx!44))))

(declare-fun res!7710 () Bool)

(assert (=> start!1751 (=> (not res!7710) (not e!5132))))

(assert (=> start!1751 (= res!7710 (and (bvsle #b00000000000000000000000000000000 jz!32) (bvsle jz!32 #b00000000000000000000000000001111) (bvsle #b00000000000000000000000000011000 e!15) (bvsle e!15 #b00000000000000000000001111110000) (= (bvsrem e!15 #b00000000000000000000000000011000) #b00000000000000000000000000000000)))))

(assert (=> start!1751 e!5132))

(assert (=> start!1751 true))

(declare-fun array_inv!260 (array!706) Bool)

(assert (=> start!1751 (array_inv!260 xx!44)))

(assert (=> start!1751 (array_inv!260 f!58)))

(assert (= (and start!1751 res!7710) b!9349))

(assert (= (and b!9349 res!7712) b!9350))

(assert (= (and b!9350 res!7711) b!9351))

(assert (= (and b!9351 res!7713) b!9352))

(declare-fun m!15243 () Bool)

(assert (=> b!9351 m!15243))

(declare-fun m!15245 () Bool)

(assert (=> b!9349 m!15245))

(declare-fun m!15247 () Bool)

(assert (=> start!1751 m!15247))

(declare-fun m!15249 () Bool)

(assert (=> start!1751 m!15249))

(check-sat (not b!9349) (not start!1751) (not b!9351))
(check-sat)
